peakDumbCharging = 11100; 
Machine = anon_enum(16); 
machineSpeed = [3700,3700,3700,3700,3700,3700,3700,3700,3700,3700,3700,3700,3700,3700,3700,3700]; 
machineLoad = [3700,3700,3700,3700,3700,3700,3700,3700,3700,3700,3700,3700,3700,3700,3700,3700]; 
Car = anon_enum(8); 
demandCar = [4760,6840,15280,3080,10000,15120,10440,12280]; 
arrivalCar = [65,63,59,57,54,54,49,39]; 
departureCar = [69,67,64,60,58,62,54,44]; 
